
  32    1
  10

   0   0   4 2 4 6 10 
   4   1   3 11 8 3 
   2   3   2 9 5 
   8   1   3 11 9 7 
   4   2   3 14 13 7 
   1   1   2 12 9 
   3   1   4 20 19 15 12 
   1   2   4 20 19 15 12 
   6   1   3 19 15 13 
   9   3   3 15 13 12 
   3   1   3 21 19 13 
   1   2   4 21 18 17 16 
   9   1   4 20 18 17 16 
   6   3   3 22 20 17 
   7   1   3 27 24 21 
   3   2   4 27 24 23 22 
   6   4   3 27 24 23 
   2   1   3 27 24 23 
   8   3   3 27 24 23 
   5   2   3 27 25 24 
   6   3   2 23 22 
   7   3   3 31 28 26 
   9   2   2 28 25 
   3   2   2 31 28 
   5   1   1 26 
  10   2   2 30 29 
   7   2   2 30 29 
   3   2   1 29 
   8   3   1 32
  10   1   1 32
   6   4   1 32
   0   0   0 
